Solving original (integer) problem with strategy gdp.hull_exact_conic_no_cholesky...
--- Job model.gms Start 02/16/26 01:32:44 52.2.0 d8e408be LEX-LEG x86 64bit/Linux
--- Applying:
    /package/gams/52.2/gmsprmun.txt
--- GAMS Parameters defined
    Input /local/scratch/a/sgusev/repos/k_means/data/gams_scip_gdp.hull_exact_conic_no_cholesky/no_mode/2026-02-16_01-32-44/original/model.gms
    Output /local/scratch/a/sgusev/repos/k_means/data/gams_scip_gdp.hull_exact_conic_no_cholesky/no_mode/2026-02-16_01-32-44/original/output.lst
    ScrDir /local/scratch/a/sgusev/repos/k_means/data/gams_scip_gdp.hull_exact_conic_no_cholesky/no_mode/2026-02-16_01-32-44/original/225a/
    SysDir /package/gams/52.2/
    CurDir /local/scratch/a/sgusev/repos/k_means/data/gams_scip_gdp.hull_exact_conic_no_cholesky/no_mode/2026-02-16_01-32-44/original/
    LogOption 3
    AppendLog 1
Licensee: David Bernal / SECQUOIA Research Group         G251008+0003Ac-GEN
          Purdue University, Davidson School of Chemical EngineeringDCE4838
          225a/gamslice.dat
          5a82958a-fbca-4a23
          node:66820903 mem:995 cores:48 ipport:49081 v:2                  
          Evaluation license: Not for commercial or production use
          The time-limited license stops working on : Jun 30, 2027
System information: 48 physical cores and 995 Gb physical memory detected
GAMS 52.2.0   Copyright (C) 1987-2025 GAMS Development. All rights reserved
--- Starting compilation
--- model.gms(2582) 2 Mb
--- $echo File /local/scratch/a/sgusev/repos/k_means/data/gams_scip_gdp.hull_exact_conic_no_cholesky/no_mode/2026-02-16_01-32-44/original/scip.opt
--- model.gms(3838) 2 Mb
--- Starting execution: elapsed 0:00:00.015
--- model.gms(2592) 3 Mb
--- Generating MINLP model GAMS_MODEL
--- model.gms(2596) 5 Mb
---   787 rows  402 columns  2,049 non-zeroes
---   546 nl-code  210 nl-non-zeroes
---   42 discrete-columns
--- Range statistics (absolute non-zero finite values)
--- RHS       [min, max] : [ 1.000E+00, 1.000E+00] - Zero values observed as well
--- Bound     [min, max] : [ 1.000E+00, 8.400E+01] - Zero values observed as well
--- Matrix    [min, max] : [ 4.412E-02, 8.400E+01] - Zero values observed as well
--- model.gms(2596) 3 Mb
--- Executing SCIP (Solvelink=5): elapsed 0:00:00.020

SCIP             52.2.0 d8e408be Dec 8, 2025           LEG x86 64bit/Linux    
SCIP version 9.2.4 (a94f778ac8)
Copyright (c) 2002-2025 Zuse Institute Berlin (ZIB)

External libraries: 
  CPLEX 22.1.2.0       Linear Programming Solver developed by IBM (www.cplex.com)
  CppAD 20180000.0     Algorithmic Differentiation of C++ algorithms developed by B. Bell (github.com/coin-or/CppAD)
  PaPILO 2.4.4         parallel presolve for integer and linear optimization (github.com/scipopt/papilo) (built with TBB) [GitHash: 7c826d50]
  Nauty 2.8.9          Computing Graph Automorphism Groups by Brendan D. McKay (users.cecs.anu.edu.au/~bdm/nauty)
  sassy 1.1            Symmetry preprocessor by Markus Anders (github.com/markusa4/sassy)
  Ipopt 3.14.19        Interior Point Optimizer developed by A. Waechter et.al. (github.com/coin-or/Ipopt)

reading option file /local/scratch/a/sgusev/repos/k_means/data/gams_scip_gdp.hull_exact_conic_no_cholesky/no_mode/2026-02-16_01-32-44/original/scip.opt
non-default parameter settings:
limits/time = 300
limits/gap = 1e-06
limits/absgap = 1e-10
lp/threads = 1
misc/printreason = FALSE
numerics/dualfeastol = 1e-06
parallel/maxnthreads = 1
nlpi/ipopt/linear_solver = "ma27"
nlpi/ipopt/linear_system_scaling = "mc19"

original problem has 401 variables (42 bin, 0 int, 359 cont) and 786 constraints

all 1 solutions given by solution candidate storage are infeasible

presolving:
(round 1, fast)       14 del vars, 0 del conss, 0 add conss, 42 chg bounds, 0 chg sides, 0 chg coeffs, 0 upgd conss, 0 impls, 14 clqs
(round 2, fast)       14 del vars, 0 del conss, 0 add conss, 42 chg bounds, 14 chg sides, 0 chg coeffs, 0 upgd conss, 0 impls, 14 clqs
(round 3, exhaustive) 14 del vars, 0 del conss, 0 add conss, 42 chg bounds, 14 chg sides, 0 chg coeffs, 560 upgd conss, 0 impls, 14 clqs
   (0.0s) probing cycle finished: starting next cycle
   (0.0s) symmetry computation started: requiring (bin +, int +, cont +), (fixed: bin -, int -, cont -)
   (0.0s) no symmetry present (symcode time: 0.00)
presolving (4 rounds: 4 fast, 2 medium, 2 exhaustive):
 14 deleted vars, 0 deleted constraints, 0 added constraints, 42 tightened bounds, 0 added holes, 14 changed sides, 0 changed coefficients
 1260 implications, 14 cliques
presolved problem has 387 variables (42 bin, 0 int, 0 impl, 345 cont) and 786 constraints
    546 constraints of type <varbound>
     14 constraints of type <setppc>
    184 constraints of type <linear>
     42 constraints of type <nonlinear>
Presolving Time: 0.02

 time | node  | left  |LP iter|LP it/n|mem/heur|mdpt |vars |cons |rows |cuts |sepa|confs|strbr|  dualbound   | primalbound  |  gap   | compl. 
  0.0s|     1 |     0 |   608 |     - |  7945k |   0 | 597 | 786 |1248 |   0 |  0 |   0 |   0 | 0.000000e+00 |      --      |    Inf | unknown
o 0.1s|     1 |     0 |   817 |     - |feaspump|   0 | 597 | 786 |1248 |   0 |  0 |   0 |   0 | 0.000000e+00 | 1.085138e+01 |    Inf | unknown
  0.1s|     1 |     0 |  1004 |     - |  8429k |   0 | 597 | 786 |1379 | 131 |  1 |   0 |   0 | 0.000000e+00 | 1.085138e+01 |    Inf | unknown
  0.1s|     1 |     0 |  1004 |     - |  8454k |   0 | 597 | 786 |1365 | 131 |  1 |   0 |   0 | 0.000000e+00 | 1.085138e+01 |    Inf | unknown
  0.1s|     1 |     0 |  1181 |     - |  9165k |   0 | 597 | 786 |1492 | 258 |  2 |   0 |   0 | 0.000000e+00 | 1.085138e+01 |    Inf | unknown
  0.2s|     1 |     0 |  1349 |     - |    10M |   0 | 597 | 786 |1614 | 380 |  3 |   0 |   0 | 0.000000e+00 | 1.085138e+01 |    Inf | unknown
  0.2s|     1 |     0 |  1512 |     - |    10M |   0 | 597 | 786 |1731 | 497 |  4 |   0 |   0 | 0.000000e+00 | 1.085138e+01 |    Inf | unknown
  0.3s|     1 |     0 |  1715 |     - |    10M |   0 | 597 | 786 |1839 | 605 |  5 |   0 |   0 | 0.000000e+00 | 1.085138e+01 |    Inf | unknown
  0.3s|     1 |     0 |  1889 |     - |    11M |   0 | 597 | 786 |1954 | 720 |  6 |   0 |   0 | 0.000000e+00 | 1.085138e+01 |    Inf | unknown
  0.3s|     1 |     0 |  2121 |     - |    11M |   0 | 597 | 786 |2065 | 831 |  7 |   0 |   0 | 0.000000e+00 | 1.085138e+01 |    Inf | unknown
  0.4s|     1 |     0 |  2303 |     - |    11M |   0 | 597 | 786 |2171 | 937 |  8 |   0 |   0 | 0.000000e+00 | 1.085138e+01 |    Inf | unknown
  0.4s|     1 |     0 |  2532 |     - |    12M |   0 | 597 | 786 |2261 |1027 |  9 |   0 |   0 | 0.000000e+00 | 1.085138e+01 |    Inf | unknown
  0.5s|     1 |     0 |  2800 |     - |    12M |   0 | 597 | 786 |2349 |1115 | 10 |   0 |   0 | 0.000000e+00 | 1.085138e+01 |    Inf | unknown
  0.5s|     1 |     0 |  2998 |     - |    12M |   0 | 597 | 786 |1873 |1210 | 11 |   0 |   0 | 0.000000e+00 | 1.085138e+01 |    Inf | unknown
  0.5s|     1 |     0 |  2998 |     - |    13M |   0 | 597 | 772 |1873 |1210 | 11 |   0 |   0 | 0.000000e+00 | 1.085138e+01 |    Inf | unknown
 time | node  | left  |LP iter|LP it/n|mem/heur|mdpt |vars |cons |rows |cuts |sepa|confs|strbr|  dualbound   | primalbound  |  gap   | compl. 
  0.5s|     1 |     0 |  3197 |     - |    13M |   0 | 597 | 772 |1941 |1278 | 12 |   0 |   0 | 0.000000e+00 | 1.085138e+01 |    Inf | unknown
  0.6s|     1 |     0 |  3498 |     - |    13M |   0 | 597 | 772 |2012 |1349 | 13 |   0 |   0 | 0.000000e+00 | 1.085138e+01 |    Inf | unknown
  0.6s|     1 |     0 |  3837 |     - |    13M |   0 | 597 | 772 |2075 |1412 | 14 |   0 |   0 | 0.000000e+00 | 1.085138e+01 |    Inf | unknown
  0.7s|     1 |     0 |  4013 |     - |    13M |   0 | 597 | 772 |2117 |1454 | 15 |   0 |   0 | 0.000000e+00 | 1.085138e+01 |    Inf | unknown
  0.7s|     1 |     0 |  4244 |     - |    14M |   0 | 597 | 772 |2151 |1488 | 16 |   0 |   0 | 0.000000e+00 | 1.085138e+01 |    Inf | unknown
  0.8s|     1 |     0 |  4457 |     - |    14M |   0 | 597 | 772 |1524 |1523 | 17 |   0 |   0 | 0.000000e+00 | 1.085138e+01 |    Inf | unknown
  0.8s|     1 |     0 |  4582 |     - |    14M |   0 | 597 | 772 |1546 |1545 | 18 |   0 |   0 | 0.000000e+00 | 1.085138e+01 |    Inf | unknown
  0.8s|     1 |     0 |  4715 |     - |    14M |   0 | 597 | 772 |1572 |1571 | 19 |   0 |   0 | 0.000000e+00 | 1.085138e+01 |    Inf | unknown
  0.8s|     1 |     0 |  4813 |     - |    14M |   0 | 597 | 772 |1592 |1591 | 20 |   0 |   0 | 0.000000e+00 | 1.085138e+01 |    Inf | unknown
  0.8s|     1 |     0 |  4857 |     - |    14M |   0 | 597 | 772 |1608 |1607 | 21 |   0 |   0 | 0.000000e+00 | 1.085138e+01 |    Inf | unknown
  0.8s|     1 |     0 |  4872 |     - |    14M |   0 | 597 | 772 |1616 |1615 | 22 |   0 |   0 | 0.000000e+00 | 1.085138e+01 |    Inf | unknown
d 1.0s|     1 |     0 |  5107 |     - |    mpec|   0 | 597 | 772 |1616 |1615 | 22 |   0 |   0 | 0.000000e+00 | 7.795577e+00 |    Inf | unknown
  1.0s|     1 |     0 |  5107 |     - |    16M |   0 | 597 | 772 |1616 |1615 | 22 |   0 |   0 | 0.000000e+00 | 7.795577e+00 |    Inf | unknown
  1.0s|     1 |     0 |  5110 |     - |    16M |   0 | 597 | 772 |1618 |1617 | 23 |   0 |   0 | 0.000000e+00 | 7.795577e+00 |    Inf | unknown
  1.0s|     1 |     0 |  5167 |     - |    16M |   0 | 597 | 772 |1619 |1618 | 24 |   0 |   0 | 0.000000e+00 | 7.795577e+00 |    Inf | unknown
 time | node  | left  |LP iter|LP it/n|mem/heur|mdpt |vars |cons |rows |cuts |sepa|confs|strbr|  dualbound   | primalbound  |  gap   | compl. 
  1.1s|     1 |     0 |  5167 |     - |    16M |   0 | 597 | 772 |1619 |1618 | 24 |   0 |   3 | 0.000000e+00 | 7.795577e+00 |    Inf | unknown
  1.1s|     1 |     0 |  5206 |     - |    16M |   0 | 597 | 772 |1627 |1626 | 25 |   0 |   3 | 0.000000e+00 | 7.795577e+00 |    Inf | unknown
  1.4s|     1 |     0 |  5206 |     - |    16M |   0 | 597 | 772 |1627 |1626 | 26 |   0 |   8 | 0.000000e+00 | 7.795577e+00 |    Inf | unknown
  1.4s|     1 |     0 |  5216 |     - |    16M |   0 | 597 | 772 |1632 |1631 | 27 |   0 |   8 | 0.000000e+00 | 7.795577e+00 |    Inf | unknown
  1.6s|     1 |     0 |  5216 |     - |    16M |   0 | 597 | 772 |1632 |1631 | 28 |   0 |  12 | 0.000000e+00 | 7.795577e+00 |    Inf | unknown
  1.7s|     1 |     0 |  5216 |     - |    16M |   0 | 597 | 772 |1632 |1631 | 29 |   0 |  18 | 0.000000e+00 | 7.795577e+00 |    Inf | unknown
  1.9s|     1 |     0 |  5216 |     - |    16M |   0 | 597 | 772 |1632 |1631 | 30 |   0 |  22 | 0.000000e+00 | 7.795577e+00 |    Inf | unknown
  2.0s|     1 |     0 |  5216 |     - |    16M |   0 | 597 | 772 |1632 |1631 | 31 |   0 |  25 | 0.000000e+00 | 7.795577e+00 |    Inf | unknown
  2.1s|     1 |     0 |  5216 |     - |    16M |   0 | 597 | 772 |1632 |1631 | 32 |   0 |  29 | 0.000000e+00 | 7.795577e+00 |    Inf | unknown
  2.3s|     1 |     0 |  5216 |     - |    16M |   0 | 597 | 772 |1632 |1631 | 33 |   0 |  34 | 0.000000e+00 | 7.795577e+00 |    Inf | unknown
  2.3s|     1 |     2 |  5216 |     - |    16M |   0 | 597 | 772 |1632 |1631 | 34 |   0 |  34 | 0.000000e+00 | 7.795577e+00 |    Inf | unknown
d 6.6s|    91 |    41 | 44476 | 440.8 |pscostdi|  13 | 597 | 800 |1595 |  16k|  8 |  28 | 195 | 0.000000e+00 | 6.195435e+00 |    Inf |   2.91%
  7.1s|   100 |    50 | 50847 | 465.1 |    27M |  13 | 597 | 800 |1786 |  18k|  7 | 105 | 200 | 0.000000e+00 | 6.195435e+00 |    Inf |   3.15%
o 8.3s|   124 |    71 | 69892 | 529.2 |objpscos|  13 | 597 | 807 |1628 |  22k|  6 | 151 | 200 | 5.338874e-01 | 5.542685e+00 | 938.17%|   4.64%
 11.4s|   200 |   143 |120379 | 580.8 |    38M |  13 | 597 | 835 |1866 |  35k|  6 | 231 | 202 | 1.121130e+00 | 5.542685e+00 | 394.38%|  11.58%
 time | node  | left  |LP iter|LP it/n|mem/heur|mdpt |vars |cons |rows |cuts |sepa|confs|strbr|  dualbound   | primalbound  |  gap   | compl. 
L13.1s|   246 |   170 |143399 | 565.7 |    alns|  20 | 597 | 847 |2349 |  42k|  5 | 256 | 202 | 1.242708e+00 | 4.994397e+00 | 301.90%|  15.68%
L13.1s|   246 |   170 |143399 | 565.7 |    alns|  20 | 597 | 847 |2349 |  42k|  5 | 256 | 202 | 1.242708e+00 | 4.994394e+00 | 301.90%|  15.68%
*13.4s|   260 |   172 |146525 | 547.2 |    LP  |  23 | 597 | 847 |2531 |  44k| 10 | 259 | 202 | 1.242708e+00 | 4.994392e+00 | 301.90%|  15.92%
*13.6s|   267 |   172 |149276 | 543.1 |    LP  |  24 | 597 | 847 |2559 |  45k| 13 | 261 | 202 | 1.272374e+00 | 4.941190e+00 | 288.34%|  16.39%
*13.8s|   280 |   173 |152139 | 528.1 |    LP  |  24 | 597 | 847 |2572 |  46k|  9 | 263 | 202 | 1.272374e+00 | 4.886595e+00 | 284.05%|  17.00%
*13.9s|   285 |   167 |152995 | 521.8 |    LP  |  24 | 597 | 847 |2576 |  46k| 11 | 264 | 202 | 1.272374e+00 | 4.766435e+00 | 274.61%|  17.46%
 14.1s|   300 |   168 |155270 | 503.2 |    47M |  24 | 597 | 847 |2460 |  47k|  4 | 264 | 202 | 1.272374e+00 | 4.766435e+00 | 274.61%|  17.76%
*15.4s|   349 |   180 |171565 | 479.2 |    LP  |  24 | 597 | 847 |2376 |  53k| 10 | 269 | 202 | 1.321114e+00 | 4.656435e+00 | 252.46%|  18.90%
*15.6s|   359 |   181 |174064 | 472.8 |    LP  |  24 | 597 | 847 |2413 |  54k|  9 | 269 | 202 | 1.330028e+00 | 4.622920e+00 | 247.58%|  19.65%
 16.4s|   400 |   188 |184439 | 450.2 |    56M |  24 | 597 | 847 |2191 |  58k|  5 | 278 | 202 | 1.498418e+00 | 4.622920e+00 | 208.52%|  21.13%
 18.0s|   500 |   198 |204646 | 400.5 |    57M |  24 | 597 | 847 |2228 |  65k|  0 | 294 | 202 | 1.547300e+00 | 4.622920e+00 | 198.77%|  23.16%
 20.6s|   600 |   220 |231460 | 378.4 |    63M |  24 | 597 | 847 |2193 |  75k|  1 | 316 | 202 | 1.654365e+00 | 4.622920e+00 | 179.44%|  27.03%
 22.3s|   700 |   230 |252444 | 354.3 |    67M |  24 | 597 | 847 |1602 |  82k|  6 | 335 | 202 | 1.736548e+00 | 4.622920e+00 | 166.21%|  29.00%
 24.7s|   800 |   242 |281750 | 346.6 |    77M |  24 | 597 | 847 |1621 |  92k|  0 | 364 | 202 | 1.863978e+00 | 4.622920e+00 | 148.01%|  32.84%
 26.3s|   900 |   246 |301316 | 329.8 |    80M |  24 | 597 | 847 |2066 |  99k|  0 | 377 | 202 | 2.059617e+00 | 4.622920e+00 | 124.46%|  35.92%
 time | node  | left  |LP iter|LP it/n|mem/heur|mdpt |vars |cons |rows |cuts |sepa|confs|strbr|  dualbound   | primalbound  |  gap   | compl. 
 27.9s|  1000 |   238 |319389 | 314.9 |    81M |  24 | 597 | 847 |2158 | 106k|  0 | 394 | 202 | 2.096595e+00 | 4.622920e+00 | 120.50%|  39.92%
 30.0s|  1100 |   242 |343808 | 308.5 |    86M |  24 | 597 | 847 |2119 | 114k|  1 | 410 | 202 | 2.160563e+00 | 4.622920e+00 | 113.97%|  42.78%
 31.8s|  1200 |   222 |365009 | 300.4 |    90M |  24 | 597 | 847 |1922 | 121k|  0 | 426 | 202 | 2.222921e+00 | 4.622920e+00 | 107.97%|  47.03%
 34.2s|  1300 |   226 |392310 | 298.3 |    98M |  24 | 597 | 847 |2101 | 130k|  8 | 446 | 202 | 2.394846e+00 | 4.622920e+00 |  93.04%|  50.94%
 35.9s|  1400 |   214 |410086 | 289.7 |   100M |  24 | 597 | 847 |1985 | 135k|  5 | 464 | 202 | 2.401304e+00 | 4.622920e+00 |  92.52%|  53.15%
 37.8s|  1500 |   204 |432227 | 285.1 |   101M |  24 | 597 | 847 |2097 | 143k|  0 | 478 | 202 | 2.577490e+00 | 4.622920e+00 |  79.36%|  57.19%
 39.8s|  1600 |   194 |456960 | 282.8 |   105M |  24 | 597 | 847 |2146 | 151k|  0 | 498 | 207 | 2.906694e+00 | 4.622920e+00 |  59.04%|  63.27%
 41.9s|  1700 |   170 |479778 | 279.6 |   111M |  24 | 597 | 847 |1607 | 158k|  0 | 518 | 212 | 2.954197e+00 | 4.622920e+00 |  56.49%|  69.70%
 43.7s|  1800 |   142 |499285 | 274.9 |   114M |  24 | 597 | 847 |1950 | 164k|  0 | 530 | 214 | 3.126394e+00 | 4.622920e+00 |  47.87%|  74.69%
 45.9s|  1900 |    98 |520471 | 271.5 |   120M |  24 | 597 | 847 |1674 | 170k|  0 | 555 | 219 | 3.229198e+00 | 4.622920e+00 |  43.16%|  80.66%
 47.6s|  2000 |    70 |540161 | 267.8 |   123M |  24 | 597 | 847 |1756 | 175k|  5 | 564 | 221 | 3.319498e+00 | 4.622920e+00 |  39.27%|  87.09%
 49.4s|  2100 |    21 |556838 | 263.0 |   125M |  24 | 597 | 847 |1675 | 180k|  4 | 580 | 225 | 3.472540e+00 | 4.622920e+00 |  33.13%|  95.86%

SCIP Status        : problem is solved [optimal solution found]
Solving Time (sec) : 49.73
Solving Nodes      : 2129
Primal Bound       : +4.62291995333985e+00 (17 solutions)
Dual Bound         : +4.62291995333985e+00
Gap                : 0.00 %


--- Reading solution for model GAMS_MODEL
***
*** Solver did not provide marginals for model GAMS_MODEL
***
--- Executing after solve: elapsed 0:00:49.820
--- model.gms(2599) 3 Mb
--- model.gms(3838) 5 Mb
--- Putfile results /local/scratch/a/sgusev/repos/k_means/data/gams_scip_gdp.hull_exact_conic_no_cholesky/no_mode/2026-02-16_01-32-44/original/results.dat
--- Putfile statresults /local/scratch/a/sgusev/repos/k_means/data/gams_scip_gdp.hull_exact_conic_no_cholesky/no_mode/2026-02-16_01-32-44/original/resultsstat.dat
*** Status: Normal completion
--- Job model.gms Stop 02/16/26 01:33:34 elapsed 0:00:49.822
Original problem solved. Time taken: 50.43295359611511 seconds
Original objective value: 4.622919953339847
